16 32
1 2 4
1 5 2
2 3 4
2 6 3
3 4 5
3 7 5
4 8 2
5 6 2
5 9 4
6 7 2
6 10 5
7 8 2
7 11 1
8 12 3
9 10 4
9 13 5
10 11 3
10 14 2
11 12 1
11 15 4
12 16 1
13 14 4
14 15 1
15 16 2
1 13 1
2 14 5
3 15 1
4 16 2
1 4 1
5 8 4
9 12 5
13 16 5
